100
32
2
11
6
17
4
24
3
10
23
10
2
10
19
2
2
18
1
2
3
1
1
1
17
17
1
1
2
4
2
4
2
2
3
1
17
18
2
3
1
3
4
1
1
2
1
3
1
1
2
1
18
4
4
6
1
16
3
2
2
1
2
1
1
17
1
1
1
4
1
3
1
1
3
1
1
2
1
1
1
3
1
1
17
20
6
8
5
1
4
1
2
3
1
1
18
1
6
1
1
3